\Problem name: compact

Minimize
OBJROW: C
Subject To
ord(0,1):  - x(0,0) + x(0,3) >= 10
ord(0,2):  x(0,2) - x(0,3) >= 1
ord(0,3):  x(0,1) - x(0,2) >= 6
ord(1,1):  - x(1,0) + x(1,3) >= 1
ord(1,2):  x(1,1) - x(1,3) >= 7
ord(1,3):  - x(1,1) + x(1,2) >= 5
ord(2,1):  x(2,2) - x(2,3) >= 9
ord(2,2):  x(2,1) - x(2,2) >= 3
ord(2,3):  x(2,0) - x(2,1) >= 7
ord(3,1):  - x(3,1) + x(3,3) >= 7
ord(3,2):  x(3,0) - x(3,3) >= 3
ord(3,3):  - x(3,0) + x(3,2) >= 9
triangle2(0,1,0):  y(0,1,0) + y(1,0,0) = 1
triangle2(0,1,1):  y(0,1,1) + y(1,0,1) = 1
triangle2(0,1,2):  y(0,1,2) + y(1,0,2) = 1
triangle2(0,1,3):  y(0,1,3) + y(1,0,3) = 1
triangle2(0,2,0):  y(0,2,0) + y(2,0,0) = 1
triangle2(0,2,1):  y(0,2,1) + y(2,0,1) = 1
triangle2(0,2,2):  y(0,2,2) + y(2,0,2) = 1
triangle2(0,2,3):  y(0,2,3) + y(2,0,3) = 1
triangle2(0,3,0):  y(0,3,0) + y(3,0,0) = 1
triangle2(0,3,1):  y(0,3,1) + y(3,0,1) = 1
triangle2(0,3,2):  y(0,3,2) + y(3,0,2) = 1
triangle2(0,3,3):  y(0,3,3) + y(3,0,3) = 1
triangle2(1,2,0):  y(1,2,0) + y(2,1,0) = 1
triangle2(1,2,1):  y(1,2,1) + y(2,1,1) = 1
triangle2(1,2,2):  y(1,2,2) + y(2,1,2) = 1
triangle2(1,2,3):  y(1,2,3) + y(2,1,3) = 1
triangle2(1,3,0):  y(1,3,0) + y(3,1,0) = 1
triangle2(1,3,1):  y(1,3,1) + y(3,1,1) = 1
triangle2(1,3,2):  y(1,3,2) + y(3,1,2) = 1
triangle2(1,3,3):  y(1,3,3) + y(3,1,3) = 1
triangle2(2,3,0):  y(2,3,0) + y(3,2,0) = 1
triangle2(2,3,1):  y(2,3,1) + y(3,2,1) = 1
triangle2(2,3,2):  y(2,3,2) + y(3,2,2) = 1
triangle2(2,3,3):  y(2,3,3) + y(3,2,3) = 1
MCLinV(0,1,0):  x(0,0) - v(0,1,0) = -10
MCLinV(1,0,0):  - v(1,0,0) + x(1,0) = -1
MCLin1(0,1,0):  u(0,1,0) >= 0
MCLin2(0,1,0):  10 y(0,1,0) - u(0,1,0) <= 0
MCLin3(0,1,0):  73 y(0,1,0) + v(0,1,0) - u(0,1,0) <= 73
MCLin4(0,1,0):  73 y(0,1,0) - u(0,1,0) >= 0
MCLin5(0,1,0):  10 y(0,1,0) + v(0,1,0) - u(0,1,0) >= 10
MCLin6(1,0,0):  u(1,0,0) >= 0
MCLin7(1,0,0):  y(1,0,0) - u(1,0,0) <= 0
MCLin8(1,0,0):  70 y(1,0,0) + v(1,0,0) - u(1,0,0) <= 70
MCLin9(1,0,0):  -70 y(0,1,0) + u(1,0,0) <= 70
MCLin10(1,0,0):  y(0,1,0) - v(1,0,0) + u(1,0,0) <= 0
MCLinV(0,1,1):  x(0,1) - v(0,1,1) = -7
MCLinV(1,0,1):  - v(1,0,1) + x(1,1) = -5
MCLin1(0,1,1):  u(0,1,1) >= 0
MCLin2(0,1,1):  24 y(0,1,1) - u(0,1,1) <= 0
MCLin3(0,1,1):  81 y(0,1,1) + v(0,1,1) - u(0,1,1) <= 81
MCLin4(0,1,1):  81 y(0,1,1) - u(0,1,1) >= 0
MCLin5(0,1,1):  24 y(0,1,1) + v(0,1,1) - u(0,1,1) >= 24
MCLin6(1,0,1):  u(1,0,1) >= 0
MCLin7(1,0,1):  13 y(1,0,1) - u(1,0,1) <= 0
MCLin8(1,0,1):  86 y(1,0,1) + v(1,0,1) - u(1,0,1) <= 86
MCLin9(1,0,1):  -86 y(0,1,1) + u(1,0,1) <= 86
MCLin10(1,0,1):  13 y(0,1,1) - v(1,0,1) + u(1,0,1) <= 0
MCLinV(0,1,2):  x(0,2) - v(0,1,2) = -6
MCLinV(1,0,2):  - v(1,0,2) + x(1,2) = -8
MCLin1(0,1,2):  u(0,1,2) >= 0
MCLin2(0,1,2):  17 y(0,1,2) - u(0,1,2) <= 0
MCLin3(0,1,2):  86 y(0,1,2) + v(0,1,2) - u(0,1,2) <= 86
MCLin4(0,1,2):  86 y(0,1,2) - u(0,1,2) >= 0
MCLin5(0,1,2):  17 y(0,1,2) + v(0,1,2) - u(0,1,2) >= 17
MCLin6(1,0,2):  u(1,0,2) >= 0
MCLin7(1,0,2):  21 y(1,0,2) - u(1,0,2) <= 0
MCLin8(1,0,2):  81 y(1,0,2) + v(1,0,2) - u(1,0,2) <= 81
MCLin9(1,0,2):  -81 y(0,1,2) + u(1,0,2) <= 81
MCLin10(1,0,2):  21 y(0,1,2) - v(1,0,2) + u(1,0,2) <= 0
MCLinV(0,1,3):  x(0,3) - v(0,1,3) = -1
MCLinV(1,0,3):  - v(1,0,3) + x(1,3) = -7
MCLin1(0,1,3):  u(0,1,3) >= 0
MCLin2(0,1,3):  11 y(0,1,3) - u(0,1,3) <= 0
MCLin3(0,1,3):  74 y(0,1,3) + v(0,1,3) - u(0,1,3) <= 74
MCLin4(0,1,3):  74 y(0,1,3) - u(0,1,3) >= 0
MCLin5(0,1,3):  11 y(0,1,3) + v(0,1,3) - u(0,1,3) >= 11
MCLin6(1,0,3):  u(1,0,3) >= 0
MCLin7(1,0,3):  8 y(1,0,3) - u(1,0,3) <= 0
MCLin8(1,0,3):  80 y(1,0,3) + v(1,0,3) - u(1,0,3) <= 80
MCLin9(1,0,3):  -80 y(0,1,3) + u(1,0,3) <= 80
MCLin10(1,0,3):  8 y(0,1,3) - v(1,0,3) + u(1,0,3) <= 0
MCLinV(0,2,0):  x(0,0) - v(0,2,0) = -10
MCLinV(2,0,0):  - v(2,0,0) + x(2,0) = -1
MCLin1(0,2,0):  u(0,2,0) >= 0
MCLin2(0,2,0):  10 y(0,2,0) - u(0,2,0) <= 0
MCLin3(0,2,0):  80 y(0,2,0) + v(0,2,0) - u(0,2,0) <= 80
MCLin4(0,2,0):  80 y(0,2,0) - u(0,2,0) >= 0
MCLin5(0,2,0):  10 y(0,2,0) + v(0,2,0) - u(0,2,0) >= 10
MCLin6(2,0,0):  u(2,0,0) >= 0
MCLin7(2,0,0):  20 y(2,0,0) - u(2,0,0) <= 0
MCLin8(2,0,0):  70 y(2,0,0) + v(2,0,0) - u(2,0,0) <= 70
MCLin9(2,0,0):  -70 y(0,2,0) + u(2,0,0) <= 70
MCLin10(2,0,0):  20 y(0,2,0) - v(2,0,0) + u(2,0,0) <= 0
MCLinV(0,2,1):  x(0,1) - v(0,2,1) = -7
MCLinV(2,0,1):  - v(2,0,1) + x(2,1) = -7
MCLin1(0,2,1):  u(0,2,1) >= 0
MCLin2(0,2,1):  24 y(0,2,1) - u(0,2,1) <= 0
MCLin3(0,2,1):  86 y(0,2,1) + v(0,2,1) - u(0,2,1) <= 86
MCLin4(0,2,1):  86 y(0,2,1) - u(0,2,1) >= 0
MCLin5(0,2,1):  24 y(0,2,1) + v(0,2,1) - u(0,2,1) >= 24
MCLin6(2,0,1):  u(2,0,1) >= 0
MCLin7(2,0,1):  19 y(2,0,1) - u(2,0,1) <= 0
MCLin8(2,0,1):  87 y(2,0,1) + v(2,0,1) - u(2,0,1) <= 87
MCLin9(2,0,1):  -87 y(0,2,1) + u(2,0,1) <= 87
MCLin10(2,0,1):  19 y(0,2,1) - v(2,0,1) + u(2,0,1) <= 0
MCLinV(0,2,2):  x(0,2) - v(0,2,2) = -6
MCLinV(2,0,2):  - v(2,0,2) + x(2,2) = -3
MCLin1(0,2,2):  u(0,2,2) >= 0
MCLin2(0,2,2):  17 y(0,2,2) - u(0,2,2) <= 0
MCLin3(0,2,2):  83 y(0,2,2) + v(0,2,2) - u(0,2,2) <= 83
MCLin4(0,2,2):  83 y(0,2,2) - u(0,2,2) >= 0
MCLin5(0,2,2):  17 y(0,2,2) + v(0,2,2) - u(0,2,2) >= 17
MCLin6(2,0,2):  u(2,0,2) >= 0
MCLin7(2,0,2):  12 y(2,0,2) - u(2,0,2) <= 0
MCLin8(2,0,2):  81 y(2,0,2) + v(2,0,2) - u(2,0,2) <= 81
MCLin9(2,0,2):  -81 y(0,2,2) + u(2,0,2) <= 81
MCLin10(2,0,2):  12 y(0,2,2) - v(2,0,2) + u(2,0,2) <= 0
MCLinV(0,2,3):  x(0,3) - v(0,2,3) = -1
MCLinV(2,0,3):  - v(2,0,3) + x(2,3) = -9
MCLin1(0,2,3):  u(0,2,3) >= 0
MCLin2(0,2,3):  11 y(0,2,3) - u(0,2,3) <= 0
MCLin3(0,2,3):  74 y(0,2,3) + v(0,2,3) - u(0,2,3) <= 74
MCLin4(0,2,3):  74 y(0,2,3) - u(0,2,3) >= 0
MCLin5(0,2,3):  11 y(0,2,3) + v(0,2,3) - u(0,2,3) >= 11
MCLin6(2,0,3):  u(2,0,3) >= 0
MCLin7(2,0,3):  9 y(2,0,3) - u(2,0,3) <= 0
MCLin8(2,0,3):  80 y(2,0,3) + v(2,0,3) - u(2,0,3) <= 80
MCLin9(2,0,3):  -80 y(0,2,3) + u(2,0,3) <= 80
MCLin10(2,0,3):  9 y(0,2,3) - v(2,0,3) + u(2,0,3) <= 0
MCLinV(0,3,0):  x(0,0) - v(0,3,0) = -10
MCLinV(3,0,0):  - v(3,0,0) + x(3,0) = -9
MCLin1(0,3,0):  u(0,3,0) >= 0
MCLin2(0,3,0):  10 y(0,3,0) - u(0,3,0) <= 0
MCLin3(0,3,0):  75 y(0,3,0) + v(0,3,0) - u(0,3,0) <= 75
MCLin4(0,3,0):  75 y(0,3,0) - u(0,3,0) >= 0
MCLin5(0,3,0):  10 y(0,3,0) + v(0,3,0) - u(0,3,0) >= 10
MCLin6(3,0,0):  u(3,0,0) >= 0
MCLin7(3,0,0):  19 y(3,0,0) - u(3,0,0) <= 0
MCLin8(3,0,0):  70 y(3,0,0) + v(3,0,0) - u(3,0,0) <= 70
MCLin9(3,0,0):  -70 y(0,3,0) + u(3,0,0) <= 70
MCLin10(3,0,0):  19 y(0,3,0) - v(3,0,0) + u(3,0,0) <= 0
MCLinV(0,3,1):  x(0,1) - v(0,3,1) = -7
MCLinV(3,0,1):  - v(3,0,1) + x(3,1) = -7
MCLin1(0,3,1):  u(0,3,1) >= 0
MCLin2(0,3,1):  24 y(0,3,1) - u(0,3,1) <= 0
MCLin3(0,3,1):  65 y(0,3,1) + v(0,3,1) - u(0,3,1) <= 65
MCLin4(0,3,1):  65 y(0,3,1) - u(0,3,1) >= 0
MCLin5(0,3,1):  24 y(0,3,1) + v(0,3,1) - u(0,3,1) >= 24
MCLin6(3,0,1):  u(3,0,1) >= 0
MCLin7(3,0,1):  7 y(3,0,1) - u(3,0,1) <= 0
MCLin8(3,0,1):  72 y(3,0,1) + v(3,0,1) - u(3,0,1) <= 72
MCLin9(3,0,1):  -72 y(0,3,1) + u(3,0,1) <= 72
MCLin10(3,0,1):  7 y(0,3,1) - v(3,0,1) + u(3,0,1) <= 0
MCLinV(0,3,2):  x(0,2) - v(0,3,2) = -6
MCLinV(3,0,2):  - v(3,0,2) + x(3,2) = -10
MCLin1(0,3,2):  u(0,3,2) >= 0
MCLin2(0,3,2):  17 y(0,3,2) - u(0,3,2) <= 0
MCLin3(0,3,2):  84 y(0,3,2) + v(0,3,2) - u(0,3,2) <= 84
MCLin4(0,3,2):  84 y(0,3,2) - u(0,3,2) >= 0
MCLin5(0,3,2):  17 y(0,3,2) + v(0,3,2) - u(0,3,2) >= 17
MCLin6(3,0,2):  u(3,0,2) >= 0
MCLin7(3,0,2):  29 y(3,0,2) - u(3,0,2) <= 0
MCLin8(3,0,2):  81 y(3,0,2) + v(3,0,2) - u(3,0,2) <= 81
MCLin9(3,0,2):  -81 y(0,3,2) + u(3,0,2) <= 81
MCLin10(3,0,2):  29 y(0,3,2) - v(3,0,2) + u(3,0,2) <= 0
MCLinV(0,3,3):  x(0,3) - v(0,3,3) = -1
MCLinV(3,0,3):  - v(3,0,3) + x(3,3) = -3
MCLin1(0,3,3):  u(0,3,3) >= 0
MCLin2(0,3,3):  11 y(0,3,3) - u(0,3,3) <= 0
MCLin3(0,3,3):  72 y(0,3,3) + v(0,3,3) - u(0,3,3) <= 72
MCLin4(0,3,3):  72 y(0,3,3) - u(0,3,3) >= 0
MCLin5(0,3,3):  11 y(0,3,3) + v(0,3,3) - u(0,3,3) >= 11
MCLin6(3,0,3):  u(3,0,3) >= 0
MCLin7(3,0,3):  10 y(3,0,3) - u(3,0,3) <= 0
MCLin8(3,0,3):  75 y(3,0,3) + v(3,0,3) - u(3,0,3) <= 75
MCLin9(3,0,3):  -75 y(0,3,3) + u(3,0,3) <= 75
MCLin10(3,0,3):  10 y(0,3,3) - v(3,0,3) + u(3,0,3) <= 0
MCLinV(1,2,0):  x(1,0) - v(1,2,0) = -1
MCLinV(2,1,0):  - v(2,1,0) + x(2,0) = -1
MCLin1(1,2,0):  u(1,2,0) >= 0
MCLin2(1,2,0):  y(1,2,0) - u(1,2,0) <= 0
MCLin3(1,2,0):  74 y(1,2,0) + v(1,2,0) - u(1,2,0) <= 74
MCLin4(1,2,0):  74 y(1,2,0) - u(1,2,0) >= 0
MCLin5(1,2,0):  y(1,2,0) + v(1,2,0) - u(1,2,0) >= 1
MCLin6(2,1,0):  u(2,1,0) >= 0
MCLin7(2,1,0):  20 y(2,1,0) - u(2,1,0) <= 0
MCLin8(2,1,0):  73 y(2,1,0) + v(2,1,0) - u(2,1,0) <= 73
MCLin9(2,1,0):  -73 y(1,2,0) + u(2,1,0) <= 73
MCLin10(2,1,0):  20 y(1,2,0) - v(2,1,0) + u(2,1,0) <= 0
MCLinV(1,2,1):  x(1,1) - v(1,2,1) = -5
MCLinV(2,1,1):  - v(2,1,1) + x(2,1) = -7
MCLin1(1,2,1):  u(1,2,1) >= 0
MCLin2(1,2,1):  13 y(1,2,1) - u(1,2,1) <= 0
MCLin3(1,2,1):  86 y(1,2,1) + v(1,2,1) - u(1,2,1) <= 86
MCLin4(1,2,1):  86 y(1,2,1) - u(1,2,1) >= 0
MCLin5(1,2,1):  13 y(1,2,1) + v(1,2,1) - u(1,2,1) >= 13
MCLin6(2,1,1):  u(2,1,1) >= 0
MCLin7(2,1,1):  19 y(2,1,1) - u(2,1,1) <= 0
MCLin8(2,1,1):  81 y(2,1,1) + v(2,1,1) - u(2,1,1) <= 81
MCLin9(2,1,1):  -81 y(1,2,1) + u(2,1,1) <= 81
MCLin10(2,1,1):  19 y(1,2,1) - v(2,1,1) + u(2,1,1) <= 0
MCLinV(1,2,2):  x(1,2) - v(1,2,2) = -8
MCLinV(2,1,2):  - v(2,1,2) + x(2,2) = -3
MCLin1(1,2,2):  u(1,2,2) >= 0
MCLin2(1,2,2):  21 y(1,2,2) - u(1,2,2) <= 0
MCLin3(1,2,2):  83 y(1,2,2) + v(1,2,2) - u(1,2,2) <= 83
MCLin4(1,2,2):  83 y(1,2,2) - u(1,2,2) >= 0
MCLin5(1,2,2):  21 y(1,2,2) + v(1,2,2) - u(1,2,2) >= 21
MCLin6(2,1,2):  u(2,1,2) >= 0
MCLin7(2,1,2):  12 y(2,1,2) - u(2,1,2) <= 0
MCLin8(2,1,2):  86 y(2,1,2) + v(2,1,2) - u(2,1,2) <= 86
MCLin9(2,1,2):  -86 y(1,2,2) + u(2,1,2) <= 86
MCLin10(2,1,2):  12 y(1,2,2) - v(2,1,2) + u(2,1,2) <= 0
MCLinV(1,2,3):  x(1,3) - v(1,2,3) = -7
MCLinV(2,1,3):  - v(2,1,3) + x(2,3) = -9
MCLin1(1,2,3):  u(1,2,3) >= 0
MCLin2(1,2,3):  8 y(1,2,3) - u(1,2,3) <= 0
MCLin3(1,2,3):  74 y(1,2,3) + v(1,2,3) - u(1,2,3) <= 74
MCLin4(1,2,3):  74 y(1,2,3) - u(1,2,3) >= 0
MCLin5(1,2,3):  8 y(1,2,3) + v(1,2,3) - u(1,2,3) >= 8
MCLin6(2,1,3):  u(2,1,3) >= 0
MCLin7(2,1,3):  9 y(2,1,3) - u(2,1,3) <= 0
MCLin8(2,1,3):  74 y(2,1,3) + v(2,1,3) - u(2,1,3) <= 74
MCLin9(2,1,3):  -74 y(1,2,3) + u(2,1,3) <= 74
MCLin10(2,1,3):  9 y(1,2,3) - v(2,1,3) + u(2,1,3) <= 0
MCLinV(1,3,0):  x(1,0) - v(1,3,0) = -1
MCLinV(3,1,0):  - v(3,1,0) + x(3,0) = -9
MCLin1(1,3,0):  u(1,3,0) >= 0
MCLin2(1,3,0):  y(1,3,0) - u(1,3,0) <= 0
MCLin3(1,3,0):  74 y(1,3,0) + v(1,3,0) - u(1,3,0) <= 74
MCLin4(1,3,0):  74 y(1,3,0) - u(1,3,0) >= 0
MCLin5(1,3,0):  y(1,3,0) + v(1,3,0) - u(1,3,0) >= 1
MCLin6(3,1,0):  u(3,1,0) >= 0
MCLin7(3,1,0):  19 y(3,1,0) - u(3,1,0) <= 0
MCLin8(3,1,0):  73 y(3,1,0) + v(3,1,0) - u(3,1,0) <= 73
MCLin9(3,1,0):  -73 y(1,3,0) + u(3,1,0) <= 73
MCLin10(3,1,0):  19 y(1,3,0) - v(3,1,0) + u(3,1,0) <= 0
MCLinV(1,3,1):  x(1,1) - v(1,3,1) = -5
MCLinV(3,1,1):  - v(3,1,1) + x(3,1) = -7
MCLin1(1,3,1):  u(1,3,1) >= 0
MCLin2(1,3,1):  13 y(1,3,1) - u(1,3,1) <= 0
MCLin3(1,3,1):  65 y(1,3,1) + v(1,3,1) - u(1,3,1) <= 65
MCLin4(1,3,1):  65 y(1,3,1) - u(1,3,1) >= 0
MCLin5(1,3,1):  13 y(1,3,1) + v(1,3,1) - u(1,3,1) >= 13
MCLin6(3,1,1):  u(3,1,1) >= 0
MCLin7(3,1,1):  7 y(3,1,1) - u(3,1,1) <= 0
MCLin8(3,1,1):  72 y(3,1,1) + v(3,1,1) - u(3,1,1) <= 72
MCLin9(3,1,1):  -72 y(1,3,1) + u(3,1,1) <= 72
MCLin10(3,1,1):  7 y(1,3,1) - v(3,1,1) + u(3,1,1) <= 0
MCLinV(1,3,2):  x(1,2) - v(1,3,2) = -8
MCLinV(3,1,2):  - v(3,1,2) + x(3,2) = -10
MCLin1(1,3,2):  u(1,3,2) >= 0
MCLin2(1,3,2):  21 y(1,3,2) - u(1,3,2) <= 0
MCLin3(1,3,2):  84 y(1,3,2) + v(1,3,2) - u(1,3,2) <= 84
MCLin4(1,3,2):  84 y(1,3,2) - u(1,3,2) >= 0
MCLin5(1,3,2):  21 y(1,3,2) + v(1,3,2) - u(1,3,2) >= 21
MCLin6(3,1,2):  u(3,1,2) >= 0
MCLin7(3,1,2):  29 y(3,1,2) - u(3,1,2) <= 0
MCLin8(3,1,2):  86 y(3,1,2) + v(3,1,2) - u(3,1,2) <= 86
MCLin9(3,1,2):  -86 y(1,3,2) + u(3,1,2) <= 86
MCLin10(3,1,2):  29 y(1,3,2) - v(3,1,2) + u(3,1,2) <= 0
MCLinV(1,3,3):  x(1,3) - v(1,3,3) = -7
MCLinV(3,1,3):  - v(3,1,3) + x(3,3) = -3
MCLin1(1,3,3):  u(1,3,3) >= 0
MCLin2(1,3,3):  8 y(1,3,3) - u(1,3,3) <= 0
MCLin3(1,3,3):  72 y(1,3,3) + v(1,3,3) - u(1,3,3) <= 72
MCLin4(1,3,3):  72 y(1,3,3) - u(1,3,3) >= 0
MCLin5(1,3,3):  8 y(1,3,3) + v(1,3,3) - u(1,3,3) >= 8
MCLin6(3,1,3):  u(3,1,3) >= 0
MCLin7(3,1,3):  10 y(3,1,3) - u(3,1,3) <= 0
MCLin8(3,1,3):  74 y(3,1,3) + v(3,1,3) - u(3,1,3) <= 74
MCLin9(3,1,3):  -74 y(1,3,3) + u(3,1,3) <= 74
MCLin10(3,1,3):  10 y(1,3,3) - v(3,1,3) + u(3,1,3) <= 0
MCLinV(2,3,0):  x(2,0) - v(2,3,0) = -1
MCLinV(3,2,0):  - v(3,2,0) + x(3,0) = -9
MCLin1(2,3,0):  u(2,3,0) >= 0
MCLin2(2,3,0):  20 y(2,3,0) - u(2,3,0) <= 0
MCLin3(2,3,0):  75 y(2,3,0) + v(2,3,0) - u(2,3,0) <= 75
MCLin4(2,3,0):  75 y(2,3,0) - u(2,3,0) >= 0
MCLin5(2,3,0):  20 y(2,3,0) + v(2,3,0) - u(2,3,0) >= 20
MCLin6(3,2,0):  u(3,2,0) >= 0
MCLin7(3,2,0):  19 y(3,2,0) - u(3,2,0) <= 0
MCLin8(3,2,0):  84 y(3,2,0) + v(3,2,0) - u(3,2,0) <= 84
MCLin9(3,2,0):  -84 y(2,3,0) + u(3,2,0) <= 84
MCLin10(3,2,0):  19 y(2,3,0) - v(3,2,0) + u(3,2,0) <= 0
MCLinV(2,3,1):  x(2,1) - v(2,3,1) = -7
MCLinV(3,2,1):  - v(3,2,1) + x(3,1) = -7
MCLin1(2,3,1):  u(2,3,1) >= 0
MCLin2(2,3,1):  19 y(2,3,1) - u(2,3,1) <= 0
MCLin3(2,3,1):  65 y(2,3,1) + v(2,3,1) - u(2,3,1) <= 65
MCLin4(2,3,1):  65 y(2,3,1) - u(2,3,1) >= 0
MCLin5(2,3,1):  19 y(2,3,1) + v(2,3,1) - u(2,3,1) >= 19
MCLin6(3,2,1):  u(3,2,1) >= 0
MCLin7(3,2,1):  7 y(3,2,1) - u(3,2,1) <= 0
MCLin8(3,2,1):  72 y(3,2,1) + v(3,2,1) - u(3,2,1) <= 72
MCLin9(3,2,1):  -72 y(2,3,1) + u(3,2,1) <= 72
MCLin10(3,2,1):  7 y(2,3,1) - v(3,2,1) + u(3,2,1) <= 0
MCLinV(2,3,2):  x(2,2) - v(2,3,2) = -3
MCLinV(3,2,2):  - v(3,2,2) + x(3,2) = -10
MCLin1(2,3,2):  u(2,3,2) >= 0
MCLin2(2,3,2):  12 y(2,3,2) - u(2,3,2) <= 0
MCLin3(2,3,2):  84 y(2,3,2) + v(2,3,2) - u(2,3,2) <= 84
MCLin4(2,3,2):  84 y(2,3,2) - u(2,3,2) >= 0
MCLin5(2,3,2):  12 y(2,3,2) + v(2,3,2) - u(2,3,2) >= 12
MCLin6(3,2,2):  u(3,2,2) >= 0
MCLin7(3,2,2):  29 y(3,2,2) - u(3,2,2) <= 0
MCLin8(3,2,2):  83 y(3,2,2) + v(3,2,2) - u(3,2,2) <= 83
MCLin9(3,2,2):  -83 y(2,3,2) + u(3,2,2) <= 83
MCLin10(3,2,2):  29 y(2,3,2) - v(3,2,2) + u(3,2,2) <= 0
MCLinV(2,3,3):  x(2,3) - v(2,3,3) = -9
MCLinV(3,2,3):  - v(3,2,3) + x(3,3) = -3
MCLin1(2,3,3):  u(2,3,3) >= 0
MCLin2(2,3,3):  9 y(2,3,3) - u(2,3,3) <= 0
MCLin3(2,3,3):  72 y(2,3,3) + v(2,3,3) - u(2,3,3) <= 72
MCLin4(2,3,3):  72 y(2,3,3) - u(2,3,3) >= 0
MCLin5(2,3,3):  9 y(2,3,3) + v(2,3,3) - u(2,3,3) >= 9
MCLin6(3,2,3):  u(3,2,3) >= 0
MCLin7(3,2,3):  10 y(3,2,3) - u(3,2,3) <= 0
MCLin8(3,2,3):  74 y(3,2,3) + v(3,2,3) - u(3,2,3) <= 74
MCLin9(3,2,3):  -74 y(2,3,3) + u(3,2,3) <= 74
MCLin10(3,2,3):  10 y(2,3,3) - v(3,2,3) + u(3,2,3) <= 0
makespan(0):  C - x(0,1) >= 7
makespan(1):  C - x(1,2) >= 8
makespan(2):  C - x(2,0) >= 1
makespan(3):  C - x(3,2) >= 10
cut_clique(013,0):  x(0,0) + 0.10000 x(1,0) >= 1
cut_clique(012,0):  x(0,0) + 0.10000 x(1,0) >= 1
cut_clique(0123,0):  x(0,0) + 0.10000 x(1,0) >= 1
cut_basic_best(0123,0):  10 x(0,0) + x(1,0) + x(2,0) + 9 x(3,0) >= 129
cut_two_jobs(0,1,0):  10 x(0,0) + x(1,0) >= 10
cut_half_best(0,0123,0):  x(0,0) - y(1,0,0) - y(2,0,0) -9 y(3,0,0) >= 0
cut_late_job_best(0123,0,0,0):  x(0,0) - y(1,0,0) - y(2,0,0) -9 y(3,0,0) >= 0
cut_late_job_best(0123,0,0,1):  x(0,0) - y(1,0,0) - y(2,0,0) -9 y(3,0,0) >= 0
cut_late_job_best(0123,0,0,2):  x(0,0) - y(1,0,0) + 19 y(0,2,0) - y(2,0,0) -9 y(3,0,0) + 19 y(1,2,0) + 9 y(3,2,0) >= 19
cut_late_job_best(0123,0,0,3):  x(0,0) - y(1,0,0) - y(2,0,0) + 10 y(0,3,0) -9 y(3,0,0) + 10 y(1,3,0) >= 10
cut_half_best(1,0123,0):  -10 y(0,1,0) + x(1,0) - y(2,1,0) -9 y(3,1,0) >= 0
cut_late_job_best(0123,0,1,0):  -10 y(0,1,0) + x(1,0) - y(2,1,0) -9 y(3,1,0) >= 0
cut_late_job_best(0123,0,1,1):  -10 y(0,1,0) + x(1,0) - y(2,1,0) -9 y(3,1,0) >= 0
cut_late_job_best(0123,0,1,2):  -10 y(0,1,0) + 19 y(0,2,0) + x(1,0) + 19 y(1,2,0) - y(2,1,0) -9 y(3,1,0) + 9 y(3,2,0) >= 19
cut_late_job_best(0123,0,1,3):  -10 y(0,1,0) + 10 y(0,3,0) + x(1,0) - y(2,1,0) + 10 y(1,3,0) -9 y(3,1,0) >= 10
cut_basic_plus_epsilon_best(01,0,2):  10 x(0,0) + 209 y(0,2,0) + x(1,0) + 209 y(1,2,0) >= 219
cut_basic_plus_epsilon_best(012,0,3):  10 x(0,0) + 120 y(0,3,0) + x(1,0) + 120 y(1,3,0) + x(2,0) >= 141
cut_basic_best(012,1):  7 x(0,1) + 5 x(1,1) + 7 x(2,1) >= 271
cut_two_jobs(0,2,1):  12 x(0,1) + 2 x(2,1) >= 252
cut_half_best(0,012,1):  x(0,1) -5 y(1,0,1) -7 y(2,0,1) >= 8
cut_late_job_best(02,1,0,0):  x(0,1) -2 y(2,0,1) >= 17
cut_late_job_best(012,1,0,1):  x(0,1) -5 y(1,0,1) -7 y(2,0,1) >= 8
cut_late_job_best(012,1,0,2):  x(0,1) -5 y(1,0,1) -7 y(2,0,1) + 4 y(1,2,1) >= 12
cut_late_job_best(0123,1,0,3):  x(0,1) -5 y(1,0,1) -7 y(2,0,1) -7 y(3,0,1) >= 0
cut_half_best(1,12,1):  x(1,1) -7 y(2,1,1) >= 8
cut_late_job_best(012,1,1,0):  -7 y(0,1,1) + 9 y(1,0,1) + 5 y(2,0,1) + x(1,1) -7 y(2,1,1) >= 17
cut_late_job_best(012,1,1,1):  -7 y(0,1,1) + x(1,1) -7 y(2,1,1) >= 8
cut_late_job_best(012,1,1,2):  -7 y(0,1,1) + x(1,1) + 4 y(1,2,1) -7 y(2,1,1) >= 12
cut_late_job_best(123,1,1,3):  x(1,1) -7 y(2,1,1) -7 y(3,1,1) >= 0
cut_basic_plus_epsilon_best(01,1,2):  7 x(0,1) + 5 x(1,1) + 48 y(1,2,1) >= 179
cut_basic_best(0123,2):  6 x(0,2) + 8 x(1,2) + 3 x(2,2) + 10 x(3,2) >= 503
cut_two_jobs(0,1,2):  4 x(0,2) + 10 x(1,2) >= 214
cut_half_best(0,0123,2):  x(0,2) -8 y(1,0,2) -3 y(2,0,2) -10 y(3,0,2) >= 9
cut_basic_plus_epsilon_best(123,2,0):  42 y(2,0,2) + 8 x(1,2) + 3 x(2,2) + 10 x(3,2) >= 365
cut_late_job_best(0123,2,0,0):  x(0,2) -8 y(1,0,2) - y(2,0,2) -10 y(3,0,2) >= 11
cut_late_job_best(013,2,0,1):  x(0,2) + 2 y(0,1,2) -8 y(1,0,2) -10 y(3,0,2) >= 13
cut_late_job_best(0123,2,0,2):  x(0,2) -8 y(1,0,2) -3 y(2,0,2) -10 y(3,0,2) >= 9
cut_late_job_best(0123,2,0,3):  x(0,2) -8 y(1,0,2) -3 y(2,0,2) + 8 y(0,3,2) -10 y(3,0,2) + 6 y(1,3,2) + 10 y(2,3,2) >= 19
cut_half_best(1,13,2):  x(1,2) -10 y(3,1,2) >= 13
cut_basic_plus_epsilon_best(03,2,1):  6 x(0,2) + 32 y(0,1,2) + 10 x(3,2) >= 268
cut_late_job_best(0123,2,1,0):  -6 y(0,1,2) + 2 y(2,0,2) + x(1,2) -3 y(2,1,2) -10 y(3,1,2) >= 11
cut_late_job_best(013,2,1,1):  -4 y(0,1,2) + x(1,2) -10 y(3,1,2) >= 13
cut_late_job_best(0123,2,1,2):  -6 y(0,1,2) + x(1,2) -3 y(2,1,2) -10 y(3,1,2) >= 9
cut_late_job_best(0123,2,1,3):  -6 y(0,1,2) + 8 y(0,3,2) + x(1,2) -3 y(2,1,2) + 6 y(1,3,2) -10 y(3,1,2) + 10 y(2,3,2) >= 19
cut_half_best(2,23,2):  x(2,2) -10 y(3,2,2) >= 9
cut_basic_plus_epsilon_best(013,2,2):  6 x(0,2) + 8 x(1,2) + 10 x(3,2) >= 404
cut_late_job_best(0123,2,2,0):  -6 y(0,2,2) + 2 y(2,0,2) -8 y(1,2,2) + x(2,2) -10 y(3,2,2) >= 11
cut_late_job_best(0123,2,2,1):  2 y(0,1,2) -6 y(0,2,2) -8 y(1,2,2) + 4 y(2,1,2) + x(2,2) -10 y(3,2,2) >= 13
cut_late_job_best(0123,2,2,2):  -6 y(0,2,2) -8 y(1,2,2) + x(2,2) -10 y(3,2,2) >= 9
cut_late_job_best(0123,2,2,3):  -6 y(0,2,2) + 8 y(0,3,2) -8 y(1,2,2) + 6 y(1,3,2) + x(2,2) + 10 y(2,3,2) -10 y(3,2,2) >= 19
cut_basic_plus_epsilon_best(012,2,3):  6 x(0,2) + 136 y(0,3,2) + 8 x(1,2) + 102 y(1,3,2) + 3 x(2,2) + 170 y(2,3,2) >= 413
cut_basic_best(0123,3):  x(0,3) + 7 x(1,3) + 9 x(2,3) + 3 x(3,3) >= 130
cut_two_jobs(1,2,3):  8 x(1,3) + 8 x(2,3) >= 72
cut_half_best(0,0123,3):  x(0,3) -7 y(1,0,3) -9 y(2,0,3) -3 y(3,0,3) >= 0
cut_late_job_best(0123,3,0,1):  x(0,3) -7 y(1,0,3) -9 y(2,0,3) -3 y(3,0,3) + y(2,1,3) >= 1
cut_late_job_best(0123,3,0,2):  x(0,3) -7 y(1,0,3) -9 y(2,0,3) -3 y(3,0,3) >= 0
cut_late_job_best(0123,3,0,3):  x(0,3) -7 y(1,0,3) -9 y(2,0,3) -3 y(3,0,3) + 6 y(1,3,3) + 7 y(2,3,3) >= 7
cut_half_best(1,123,3):  x(1,3) -9 y(2,1,3) -3 y(3,1,3) >= 0
cut_basic_plus_epsilon_best(023,3,1):  x(0,3) + 13 y(2,1,3) + 9 x(2,3) + 3 x(3,3) >= 52
cut_late_job_best(0123,3,1,1):  - y(0,1,3) + x(1,3) -8 y(2,1,3) -3 y(3,1,3) >= 1
cut_late_job_best(0123,3,1,2):  - y(0,1,3) + x(1,3) -9 y(2,1,3) -3 y(3,1,3) >= 0
cut_late_job_best(0123,3,1,3):  - y(0,1,3) + x(1,3) -9 y(2,1,3) + 6 y(1,3,3) -3 y(3,1,3) + 7 y(2,3,3) >= 7
cut_half_best(2,23,3):  x(2,3) -3 y(3,2,3) >= 0
cut_late_job_best(0123,3,2,1):  - y(0,2,3) -7 y(1,2,3) + y(2,1,3) + x(2,3) -3 y(3,2,3) >= 1
cut_late_job_best(0123,3,2,2):  - y(0,2,3) -7 y(1,2,3) + x(2,3) -3 y(3,2,3) >= 0
cut_late_job_best(0123,3,2,3):  - y(0,2,3) -7 y(1,2,3) + 6 y(1,3,3) + x(2,3) + 7 y(2,3,3) -3 y(3,2,3) >= 7
cut_basic_plus_epsilon_best(012,3,3):  x(0,3) + 7 x(1,3) + 102 y(1,3,3) + 9 x(2,3) + 119 y(2,3,3) >= 198
cut_triangle_best((03)(10)(21)(32),0):  y(1,0,0) + y(0,3,0) + y(2,1,0) + y(3,2,0) <= 3
cut_triangle_best((03)(20)(32),2):  y(2,0,2) + y(0,3,2) + y(3,2,2) <= 2
cut_two_jobs(1,3,2):  2 x(1,2) + 16 x(3,2) >= 362
cut_triangle_best((02)(10)(23)(31),3):  y(1,0,3) + y(0,2,3) + y(3,1,3) + y(2,3,3) <= 3
cut_two_jobs(1,3,3):  x(1,3) + 9 x(3,3) >= 73
cut_late_job_best(13,3,1,3):  x(1,3) + 6 y(1,3,3) -3 y(3,1,3) >= 7
Bounds
 0 <= C <= 94
 0 <= x(0,0) <= 70
 0 <= y(0,1,0) <= 1
 0 <= y(1,0,0) <= 1
 10 <= v(0,1,0) <= 73
 1 <= v(1,0,0) <= 70
 -940 <= u(0,1,0)
 -940 <= u(1,0,0)
 0 <= y(0,2,0) <= 1
 0 <= y(2,0,0) <= 1
 10 <= v(0,2,0) <= 80
 20 <= v(2,0,0) <= 70
 -940 <= u(0,2,0)
 -940 <= u(2,0,0)
 0 <= y(0,3,0) <= 1
 0 <= y(3,0,0) <= 1
 10 <= v(0,3,0) <= 75
 19 <= v(3,0,0) <= 70
 -940 <= u(0,3,0)
 -940 <= u(3,0,0)
 0 <= x(1,0) <= 73
 0 <= y(1,2,0) <= 1
 0 <= y(2,1,0) <= 1
 1 <= v(1,2,0) <= 74
 20 <= v(2,1,0) <= 73
 -940 <= u(1,2,0)
 -940 <= u(2,1,0)
 0 <= y(1,3,0) <= 1
 0 <= y(3,1,0) <= 1
 1 <= v(1,3,0) <= 74
 19 <= v(3,1,0) <= 73
 -940 <= u(1,3,0)
 -940 <= u(3,1,0)
 19 <= x(2,0) <= 93
 0 <= y(2,3,0) <= 1
 0 <= y(3,2,0) <= 1
 20 <= v(2,3,0) <= 75
 19 <= v(3,2,0) <= 84
 -940 <= u(2,3,0)
 -940 <= u(3,2,0)
 10 <= x(3,0) <= 75
 17 <= x(0,1) <= 87
 0 <= y(0,1,1) <= 1
 0 <= y(1,0,1) <= 1
 24 <= v(0,1,1) <= 81
 13 <= v(1,0,1) <= 86
 -940 <= u(0,1,1)
 -940 <= u(1,0,1)
 0 <= y(0,2,1) <= 1
 0 <= y(2,0,1) <= 1
 24 <= v(0,2,1) <= 86
 19 <= v(2,0,1) <= 87
 -940 <= u(0,2,1)
 -940 <= u(2,0,1)
 0 <= y(0,3,1) <= 1
 0 <= y(3,0,1) <= 1
 24 <= v(0,3,1) <= 65
 7 <= v(3,0,1) <= 72
 -940 <= u(0,3,1)
 -940 <= u(3,0,1)
 8 <= x(1,1) <= 81
 0 <= y(1,2,1) <= 1
 0 <= y(2,1,1) <= 1
 13 <= v(1,2,1) <= 86
 19 <= v(2,1,1) <= 81
 -940 <= u(1,2,1)
 -940 <= u(2,1,1)
 0 <= y(1,3,1) <= 1
 0 <= y(3,1,1) <= 1
 13 <= v(1,3,1) <= 65
 7 <= v(3,1,1) <= 72
 -940 <= u(1,3,1)
 -940 <= u(3,1,1)
 12 <= x(2,1) <= 86
 0 <= y(2,3,1) <= 1
 0 <= y(3,2,1) <= 1
 19 <= v(2,3,1) <= 65
 7 <= v(3,2,1) <= 72
 -940 <= u(2,3,1)
 -940 <= u(3,2,1)
 0 <= x(3,1) <= 65
 11 <= x(0,2) <= 81
 0 <= y(0,1,2) <= 1
 0 <= y(1,0,2) <= 1
 17 <= v(0,1,2) <= 86
 21 <= v(1,0,2) <= 81
 -940 <= u(0,1,2)
 -940 <= u(1,0,2)
 0 <= y(0,2,2) <= 1
 0 <= y(2,0,2) <= 1
 17 <= v(0,2,2) <= 83
 12 <= v(2,0,2) <= 81
 -940 <= u(0,2,2)
 -940 <= u(2,0,2)
 0 <= y(0,3,2) <= 1
 0 <= y(3,0,2) <= 1
 17 <= v(0,3,2) <= 84
 29 <= v(3,0,2) <= 81
 -940 <= u(0,3,2)
 -940 <= u(3,0,2)
 13 <= x(1,2) <= 86
 0 <= y(1,2,2) <= 1
 0 <= y(2,1,2) <= 1
 21 <= v(1,2,2) <= 83
 12 <= v(2,1,2) <= 86
 -940 <= u(1,2,2)
 -940 <= u(2,1,2)
 0 <= y(1,3,2) <= 1
 0 <= y(3,1,2) <= 1
 21 <= v(1,3,2) <= 84
 29 <= v(3,1,2) <= 86
 -940 <= u(1,3,2)
 -940 <= u(3,1,2)
 9 <= x(2,2) <= 83
 0 <= y(2,3,2) <= 1
 0 <= y(3,2,2) <= 1
 12 <= v(2,3,2) <= 84
 29 <= v(3,2,2) <= 83
 -940 <= u(2,3,2)
 -940 <= u(3,2,2)
 19 <= x(3,2) <= 84
 10 <= x(0,3) <= 80
 0 <= y(0,1,3) <= 1
 0 <= y(1,0,3) <= 1
 11 <= v(0,1,3) <= 74
 8 <= v(1,0,3) <= 80
 -940 <= u(0,1,3)
 -940 <= u(1,0,3)
 0 <= y(0,2,3) <= 1
 0 <= y(2,0,3) <= 1
 11 <= v(0,2,3) <= 74
 9 <= v(2,0,3) <= 80
 -940 <= u(0,2,3)
 -940 <= u(2,0,3)
 0 <= y(0,3,3) <= 1
 0 <= y(3,0,3) <= 1
 11 <= v(0,3,3) <= 72
 10 <= v(3,0,3) <= 75
 -940 <= u(0,3,3)
 -940 <= u(3,0,3)
 1 <= x(1,3) <= 74
 0 <= y(1,2,3) <= 1
 0 <= y(2,1,3) <= 1
 8 <= v(1,2,3) <= 74
 9 <= v(2,1,3) <= 74
 -940 <= u(1,2,3)
 -940 <= u(2,1,3)
 0 <= y(1,3,3) <= 1
 0 <= y(3,1,3) <= 1
 8 <= v(1,3,3) <= 72
 10 <= v(3,1,3) <= 74
 -940 <= u(1,3,3)
 -940 <= u(3,1,3)
 0 <= x(2,3) <= 74
 0 <= y(2,3,3) <= 1
 0 <= y(3,2,3) <= 1
 9 <= v(2,3,3) <= 72
 10 <= v(3,2,3) <= 74
 -940 <= u(2,3,3)
 -940 <= u(3,2,3)
 7 <= x(3,3) <= 72
End
